Minimize
  - 20 y_0 - 39 y_1 - 8 y_2 - 21 y_3 - 26 y_5 - 46 y_6 - 41 y_7 - 44 y_8
   - 52 y_9 - 46 y_10 - 51 y_11 - 27 y_12 - 52 y_13 - 13 y_14 - 38 y_15
   - 41 y_16 - 44 y_17 - 50 y_18 - 30 y_19 + 69 x_0_1 + 24 x_0_2 + 25 x_0_3
   + 39 x_0_4 + 88 x_0_6 + 71 x_0_7 + 67 x_0_8 + 16 x_0_12 + 71 x_0_13
   + 68 x_1_2 + 20 x_1_6 + 77 x_1_12 + 60 x_1_15 + 89 x_1_16 + 16 x_1_17
   + 18 x_1_19 + 27 x_2_3 + 40 x_2_5 + 84 x_2_6 + 71 x_2_7 + 75 x_2_8
   + 91 x_2_9 + 78 x_2_10 + 90 x_2_11 + 40 x_2_12 + 60 x_2_15 + 66 x_2_16
   + 51 x_2_19 + 41 x_3_4 + 47 x_3_7 + 49 x_3_8 + 65 x_3_9 + 66 x_3_10
   + 21 x_3_14 + 40 x_3_15 + 58 x_3_16 + 51 x_3_17 + 65 x_3_18 + 28 x_3_19
   + 53 x_4_5 + 91 x_4_6 + 104 x_4_9 + 55 x_4_12 + 26 x_4_14 + 76 x_4_15
   + 88 x_4_17 + 50 x_5_6 + 52 x_5_9 + 69 x_5_10 + 51 x_5_11 + 39 x_5_15
   + 63 x_5_16 + 17 x_5_19 + 20 x_6_7 + 42 x_6_8 + 38 x_6_9 + 112 x_6_10
   + 66 x_6_14 + 80 x_6_15 + 109 x_6_16 + 29 x_6_17 + 15 x_6_18 + 91 x_7_10
   + 61 x_7_13 + 12 x_7_17 + 18 x_7_18 + 21 x_7_19 + 17 x_8_9 + 74 x_8_10
   + 17 x_8_11 + 74 x_8_16 + 13 x_8_17 + 32 x_8_18 + 34 x_8_19 + 46 x_9_13
   + 59 x_9_15 + 90 x_9_16 + 24 x_9_18 + 89 x_10_11 + 48 x_10_13
   + 85 x_10_17 + 78 x_11_14 + 90 x_11_16 + 22 x_11_18 + 64 x_12_13
   + 77 x_12_17 + 95 x_12_18 + 63 x_12_19 + 86 x_13_14 + 51 x_13_17
   + 65 x_13_19 + 73 x_14_18 + 53 x_15_19 + 29 x_17_19 + 39 x_18_19
   + 689 Constant
Subject To
 c_0: y_3 = 1
 c_1_0: y_0 >= 1
 c_1_1: y_1 + y_7 >= 1
 c_1_2: y_2 >= 1
 c_1_3: y_3 >= 1
 c_1_4: y_4 >= 1
 c_1_5: y_5 >= 1
 c_1_6: y_6 >= 1
 c_1_7: y_1 + y_7 >= 1
 c_1_8: y_8 >= 1
 c_1_9: y_9 + y_11 >= 1
 c_1_10: y_10 >= 1
 c_1_11: y_9 + y_11 >= 1
 c_1_12: y_12 >= 1
 c_1_13: y_13 >= 1
 c_1_14: y_14 >= 1
 c_1_15: y_15 >= 1
 c_1_16: y_16 >= 1
 c_1_17: y_17 >= 1
 c_1_18: y_18 >= 1
 c_1_19: y_19 >= 1
 c_2_0: - 2 y_0 + x_0_1 + x_0_2 + x_0_3 + x_0_4 + x_0_6 + x_0_7 + x_0_8
   + x_0_12 + x_0_13 = 0
 c_2_1: - 2 y_1 + x_0_1 + x_1_2 + x_1_6 + x_1_12 + x_1_15 + x_1_16 + x_1_17
   + x_1_19 = 0
 c_2_2: - 2 y_2 + x_0_2 + x_1_2 + x_2_3 + x_2_5 + x_2_6 + x_2_7 + x_2_8
   + x_2_9 + x_2_10 + x_2_11 + x_2_12 + x_2_15 + x_2_16 + x_2_19 = 0
 c_2_3: - 2 y_3 + x_0_3 + x_2_3 + x_3_4 + x_3_7 + x_3_8 + x_3_9 + x_3_10
   + x_3_14 + x_3_15 + x_3_16 + x_3_17 + x_3_18 + x_3_19 = 0
 c_2_4: - 2 y_4 + x_0_4 + x_3_4 + x_4_5 + x_4_6 + x_4_9 + x_4_12 + x_4_14
   + x_4_15 + x_4_17 = 0
 c_2_5: - 2 y_5 + x_2_5 + x_4_5 + x_5_6 + x_5_9 + x_5_10 + x_5_11 + x_5_15
   + x_5_16 + x_5_19 = 0
 c_2_6: - 2 y_6 + x_0_6 + x_1_6 + x_2_6 + x_4_6 + x_5_6 + x_6_7 + x_6_8
   + x_6_9 + x_6_10 + x_6_14 + x_6_15 + x_6_16 + x_6_17 + x_6_18 = 0
 c_2_7: - 2 y_7 + x_0_7 + x_2_7 + x_3_7 + x_6_7 + x_7_10 + x_7_13 + x_7_17
   + x_7_18 + x_7_19 = 0
 c_2_8: - 2 y_8 + x_0_8 + x_2_8 + x_3_8 + x_6_8 + x_8_9 + x_8_10 + x_8_11
   + x_8_16 + x_8_17 + x_8_18 + x_8_19 = 0
 c_2_9: - 2 y_9 + x_2_9 + x_3_9 + x_4_9 + x_5_9 + x_6_9 + x_8_9 + x_9_13
   + x_9_15 + x_9_16 + x_9_18 = 0
 c_2_10: - 2 y_10 + x_2_10 + x_3_10 + x_5_10 + x_6_10 + x_7_10 + x_8_10
   + x_10_11 + x_10_13 + x_10_17 = 0
 c_2_11: - 2 y_11 + x_2_11 + x_5_11 + x_8_11 + x_10_11 + x_11_14 + x_11_16
   + x_11_18 = 0
 c_2_12: - 2 y_12 + x_0_12 + x_1_12 + x_2_12 + x_4_12 + x_12_13 + x_12_17
   + x_12_18 + x_12_19 = 0
 c_2_13: - 2 y_13 + x_0_13 + x_7_13 + x_9_13 + x_10_13 + x_12_13 + x_13_14
   + x_13_17 + x_13_19 = 0
 c_2_14: - 2 y_14 + x_3_14 + x_4_14 + x_6_14 + x_11_14 + x_13_14 + x_14_18
   = 0
 c_2_15: - 2 y_15 + x_1_15 + x_2_15 + x_3_15 + x_4_15 + x_5_15 + x_6_15
   + x_9_15 + x_15_19 = 0
 c_2_16: - 2 y_16 + x_1_16 + x_2_16 + x_3_16 + x_5_16 + x_6_16 + x_8_16
   + x_9_16 + x_11_16 = 0
 c_2_17: - 2 y_17 + x_1_17 + x_3_17 + x_4_17 + x_6_17 + x_7_17 + x_8_17
   + x_10_17 + x_12_17 + x_13_17 + x_17_19 = 0
 c_2_18: - 2 y_18 + x_3_18 + x_6_18 + x_7_18 + x_8_18 + x_9_18 + x_11_18
   + x_12_18 + x_14_18 + x_18_19 = 0
 c_2_19: - 2 y_19 + x_1_19 + x_2_19 + x_3_19 + x_5_19 + x_7_19 + x_8_19
   + x_12_19 + x_13_19 + x_15_19 + x_17_19 + x_18_19 = 0
Bounds
 Constant = 1
Binaries
 y_0 y_1 y_2 y_3 y_4 y_5 y_6 y_7 y_8 y_9 y_10 y_11 y_12 y_13 y_14 y_15 y_16
 y_17 y_18 y_19 x_0_1 x_0_2 x_0_3 x_0_4 x_0_6 x_0_7 x_0_8 x_0_12 x_0_13
 x_1_2 x_1_6 x_1_12 x_1_15 x_1_16 x_1_17 x_1_19 x_2_3 x_2_5 x_2_6 x_2_7
 x_2_8 x_2_9 x_2_10 x_2_11 x_2_12 x_2_15 x_2_16 x_2_19 x_3_4 x_3_7 x_3_8
 x_3_9 x_3_10 x_3_14 x_3_15 x_3_16 x_3_17 x_3_18 x_3_19 x_4_5 x_4_6 x_4_9
 x_4_12 x_4_14 x_4_15 x_4_17 x_5_6 x_5_9 x_5_10 x_5_11 x_5_15 x_5_16 x_5_19
 x_6_7 x_6_8 x_6_9 x_6_10 x_6_14 x_6_15 x_6_16 x_6_17 x_6_18 x_7_10 x_7_13
 x_7_17 x_7_18 x_7_19 x_8_9 x_8_10 x_8_11 x_8_16 x_8_17 x_8_18 x_8_19
 x_9_13 x_9_15 x_9_16 x_9_18 x_10_11 x_10_13 x_10_17 x_11_14 x_11_16
 x_11_18 x_12_13 x_12_17 x_12_18 x_12_19 x_13_14 x_13_17 x_13_19 x_14_18
 x_15_19 x_17_19 x_18_19
End
